p tdp 55 108
8 45
28 40
7 36
31 47
15 48
25 44
41 42
23 46
19 20
10 41
1 17
24 54
16 55
13 30
2 4
8 51
53 55
2 3
27 29
11 12
44 52
9 37
15 43
49 55
31 49
34 49
50 51
3 7
6 26
18 48
33 47
28 38
5 7
14 30
3 12
21 44
34 54
32 38
22 23
9 39
35 51
1 6
26 55
18 19
21 50
11 31
27 41
37 38
5 14
7 43
19 35
20 38
23 42
46 54
14 41
37 55
24 25
43 49
26 51
1 55
28 29
26 35
17 41
39 41
40 47
16 17
42 44
27 43
4 15
5 47
7 42
21 41
23 48
8 42
1 49
24 48
19 38
6 32
24 52
5 6
41 43
43 52
32 44
9 25
25 46
43 51
13 27
14 35
2 13
1 30
21 52
19 43
9 50
2 41
29 47
3 43
5 37
4 46
8 24
36 55
29 39
44 54
6 46
13 47
2 45
13 53
25 28
45 54
